0
0
0
0
0
0
0
0
0
A
1                 [ACENADI_______________________________]
1                 [ACENUNV_______________________________]
1                 [ACENADR1______________________________]
1                 [ACENADR2______________________________]
1                      [ACEN-IL-ILCE______]/[ACENULKE____]
1
0
1                 [ACENVDA___________]-[ACENVNO__________]                                                          [FATTAR__]
0
0
0
0
0
2      [VOUCHER_] [MUSADI__] [MUSSOY__] [B]+[K] [ADET] [BK] [CK] PP QQx[GUNFIY]=[DVTUTAR__] [DOV] x[KURU____] = [TLTUTAR_______]
2      [VOUCHER_] [MUSADI__] [MUSSOY__] [B]+[K] [ADET] [BK] [CK] PP QQx[GUNFIY]=[DVTUTAR__] [DOV] x[KURU____] = [TLTUTAR_______]
2      [VOUCHER_] [MUSADI__] [MUSSOY__] [B]+[K] [ADET] [BK] [CK] PP QQx[GUNFIY]=[DVTUTAR__] [DOV] x[KURU____] = [TLTUTAR_______]
2      [VOUCHER_] [MUSADI__] [MUSSOY__] [B]+[K] [ADET] [BK] [CK] PP QQx[GUNFIY]=[DVTUTAR__] [DOV] x[KURU____] = [TLTUTAR_______]
2      [VOUCHER_] [MUSADI__] [MUSSOY__] [B]+[K] [ADET] [BK] [CK] PP QQx[GUNFIY]=[DVTUTAR__] [DOV] x[KURU____] = [TLTUTAR_______]
2      [VOUCHER_] [MUSADI__] [MUSSOY__] [B]+[K] [ADET] [BK] [CK] PP QQx[GUNFIY]=[DVTUTAR__] [DOV] x[KURU____] = [TLTUTAR_______]
2      [VOUCHER_] [MUSADI__] [MUSSOY__] [B]+[K] [ADET] [BK] [CK] PP QQx[GUNFIY]=[DVTUTAR__] [DOV] x[KURU____] = [TLTUTAR_______]
2      [VOUCHER_] [MUSADI__] [MUSSOY__] [B]+[K] [ADET] [BK] [CK] PP QQx[GUNFIY]=[DVTUTAR__] [DOV] x[KURU____] = [TLTUTAR_______]
2      [VOUCHER_] [MUSADI__] [MUSSOY__] [B]+[K] [ADET] [BK] [CK] PP QQx[GUNFIY]=[DVTUTAR__] [DOV] x[KURU____] = [TLTUTAR_______]
2      [VOUCHER_] [MUSADI__] [MUSSOY__] [B]+[K] [ADET] [BK] [CK] PP QQx[GUNFIY]=[DVTUTAR__] [DOV] x[KURU____] = [TLTUTAR_______]
2      [VOUCHER_] [MUSADI__] [MUSSOY__] [B]+[K] [ADET] [BK] [CK] PP QQx[GUNFIY]=[DVTUTAR__] [DOV] x[KURU____] = [TLTUTAR_______]
2      [VOUCHER_] [MUSADI__] [MUSSOY__] [B]+[K] [ADET] [BK] [CK] PP QQx[GUNFIY]=[DVTUTAR__] [DOV] x[KURU____] = [TLTUTAR_______]
2      [VOUCHER_] [MUSADI__] [MUSSOY__] [B]+[K] [ADET] [BK] [CK] PP QQx[GUNFIY]=[DVTUTAR__] [DOV] x[KURU____] = [TLTUTAR_______]
2      [VOUCHER_] [MUSADI__] [MUSSOY__] [B]+[K] [ADET] [BK] [CK] PP QQx[GUNFIY]=[DVTUTAR__] [DOV] x[KURU____] = [TLTUTAR_______]
2      [VOUCHER_] [MUSADI__] [MUSSOY__] [B]+[K] [ADET] [BK] [CK] PP QQx[GUNFIY]=[DVTUTAR__] [DOV] x[KURU____] = [TLTUTAR_______]
2      [VOUCHER_] [MUSADI__] [MUSSOY__] [B]+[K] [ADET] [BK] [CK] PP QQx[GUNFIY]=[DVTUTAR__] [DOV] x[KURU____] = [TLTUTAR_______]
2      [VOUCHER_] [MUSADI__] [MUSSOY__] [B]+[K] [ADET] [BK] [CK] PP QQx[GUNFIY]=[DVTUTAR__] [DOV] x[KURU____] = [TLTUTAR_______]
2      [VOUCHER_] [MUSADI__] [MUSSOY__] [B]+[K] [ADET] [BK] [CK] PP QQx[GUNFIY]=[DVTUTAR__] [DOV] x[KURU____] = [TLTUTAR_______]
2      [VOUCHER_] [MUSADI__] [MUSSOY__] [B]+[K] [ADET] [BK] [CK] PP QQx[GUNFIY]=[DVTUTAR__] [DOV] x[KURU____] = [TLTUTAR_______]
2      [VOUCHER_] [MUSADI__] [MUSSOY__] [B]+[K] [ADET] [BK] [CK] PP QQx[GUNFIY]=[DVTUTAR__] [DOV] x[KURU____] = [TLTUTAR_______]
2      [VOUCHER_] [MUSADI__] [MUSSOY__] [B]+[K] [ADET] [BK] [CK] PP QQx[GUNFIY]=[DVTUTAR__] [DOV] x[KURU____] = [TLTUTAR_______]
2      [VOUCHER_] [MUSADI__] [MUSSOY__] [B]+[K] [ADET] [BK] [CK] PP QQx[GUNFIY]=[DVTUTAR__] [DOV] x[KURU____] = [TLTUTAR_______]
0=
0
3                                                                   -----------                            ----------------
3                                                                   [TDVTUTAR_] [DOV]                      [TTLTUTAR______]
3                                                                   -----------                            ----------------
0
3                                                                                                          [TTLKDVNET_____]
3                                                                                                          [TTLKDVSI______]
3                                                                                                          [TTLBRUT_______]
4                [YAZI.........................................................................................]

9                Vadesinde Odenmeyen faturalara aylçk %10 vade farkç uygulançr.                                                









